p cnf 1995 972
-1711 1859 0
-1859 1711 0
-1861 -1862 0
-1713 1861 0
-1714 1862 0
-1861 1713 0
-1862 1714 0
-1864 -1865 0
-1716 1864 0
-1717 1865 0
-1864 1716 0
-1865 1717 0
-1867 -1868 0
-1867 -1869 0
-1868 -1869 0
-1719 1867 0
-1720 1868 0
-1721 1869 0
-1867 1719 0
-1868 1720 0
-1869 1721 0
-1871 -1872 0
-1723 1871 0
-1724 1872 0
-1871 1723 0
-1872 1724 0
-1874 -1875 0
-1874 -1876 0
-1875 -1876 0
-1726 1874 0
-1727 1875 0
-1728 1876 0
-1874 1726 0
-1875 1727 0
-1876 1728 0
-1878 -1879 0
-1730 1878 0
-1731 1879 0
-1878 1730 0
-1879 1731 0
-1881 -1882 0
-1881 -1883 0
-1882 -1883 0
-1733 1881 0
-1734 1882 0
-1735 1883 0
-1881 1733 0
-1882 1734 0
-1883 1735 0
-1885 -1886 0
-1737 1885 0
-1738 1886 0
-1885 1737 0
-1886 1738 0
-1888 -1889 0
-1888 -1890 0
-1889 -1890 0
-1740 1888 0
-1741 1889 0
-1742 1890 0
-1888 1740 0
-1889 1741 0
-1890 1742 0
-1892 -1893 0
-1744 1892 0
-1745 1893 0
-1892 1744 0
-1893 1745 0
-1895 -1896 0
-1895 -1897 0
-1896 -1897 0
-1747 1895 0
-1748 1896 0
-1749 1897 0
-1895 1747 0
-1896 1748 0
-1897 1749 0
-1899 -1900 0
-1751 1899 0
-1752 1900 0
-1899 1751 0
-1900 1752 0
-1902 -1903 0
-1902 -1904 0
-1903 -1904 0
-1754 1902 0
-1755 1903 0
-1756 1904 0
-1902 1754 0
-1903 1755 0
-1904 1756 0
-1906 -1907 0
-1758 1906 0
-1759 1907 0
-1906 1758 0
-1907 1759 0
-1910 1919 1920 1921 1922 1923 0
-1919 -1920 0
-1919 -1921 0
-1919 -1922 0
-1919 -1923 0
-1920 -1921 0
-1920 -1922 0
-1920 -1923 0
-1921 -1922 0
-1921 -1923 0
-1922 -1923 0
-1910 1924 1925 1926 1927 1928 1929 1930 0
-1924 -1925 0
-1924 -1926 0
-1924 -1927 0
-1924 -1928 0
-1924 -1929 0
-1924 -1930 0
-1925 -1926 0
-1925 -1927 0
-1925 -1928 0
-1925 -1929 0
-1925 -1930 0
-1926 -1927 0
-1926 -1928 0
-1926 -1929 0
-1926 -1930 0
-1927 -1928 0
-1927 -1929 0
-1927 -1930 0
-1928 -1929 0
-1928 -1930 0
-1929 -1930 0
-1910 1931 1932 1933 1934 1935 1936 1937 1938 0
-1931 -1932 0
-1931 -1933 0
-1931 -1934 0
-1931 -1935 0
-1931 -1936 0
-1931 -1937 0
-1931 -1938 0
-1932 -1933 0
-1932 -1934 0
-1932 -1935 0
-1932 -1936 0
-1932 -1937 0
-1932 -1938 0
-1933 -1934 0
-1933 -1935 0
-1933 -1936 0
-1933 -1937 0
-1933 -1938 0
-1934 -1935 0
-1934 -1936 0
-1934 -1937 0
-1934 -1938 0
-1935 -1936 0
-1935 -1937 0
-1935 -1938 0
-1936 -1937 0
-1936 -1938 0
-1937 -1938 0
-1910 1917 0
-1910 1918 0
-1910 1916 0
-1911 1919 1920 1921 1922 1923 0
-1919 -1920 0
-1919 -1921 0
-1919 -1922 0
-1919 -1923 0
-1920 -1921 0
-1920 -1922 0
-1920 -1923 0
-1921 -1922 0
-1921 -1923 0
-1922 -1923 0
-1911 1924 1925 1926 1927 1928 1929 1930 0
-1924 -1925 0
-1924 -1926 0
-1924 -1927 0
-1924 -1928 0
-1924 -1929 0
-1924 -1930 0
-1925 -1926 0
-1925 -1927 0
-1925 -1928 0
-1925 -1929 0
-1925 -1930 0
-1926 -1927 0
-1926 -1928 0
-1926 -1929 0
-1926 -1930 0
-1927 -1928 0
-1927 -1929 0
-1927 -1930 0
-1928 -1929 0
-1928 -1930 0
-1929 -1930 0
-1911 1931 1932 1933 1934 1935 1936 1937 1938 0
-1931 -1932 0
-1931 -1933 0
-1931 -1934 0
-1931 -1935 0
-1931 -1936 0
-1931 -1937 0
-1931 -1938 0
-1932 -1933 0
-1932 -1934 0
-1932 -1935 0
-1932 -1936 0
-1932 -1937 0
-1932 -1938 0
-1933 -1934 0
-1933 -1935 0
-1933 -1936 0
-1933 -1937 0
-1933 -1938 0
-1934 -1935 0
-1934 -1936 0
-1934 -1937 0
-1934 -1938 0
-1935 -1936 0
-1935 -1937 0
-1935 -1938 0
-1936 -1937 0
-1936 -1938 0
-1937 -1938 0
-1911 1915 0
-1911 1914 0
-1911 1916 0
-1909 -1910 0
-1909 -1911 0
-1909 -1912 0
-1910 -1911 0
-1910 -1912 0
-1911 -1912 0
-1935 -1914 1681 0
-1934 -1914 1656 0
-1936 -1914 1657 0
-1932 -1914 1676 0
-1931 -1914 1679 0
-1933 -1914 1672 0
-1937 -1914 1687 0
-1938 -1914 1662 0
-1919 -1915 1826 0
-1922 -1915 1797 0
-1921 -1915 1791 0
-1920 -1915 1816 0
-1923 -1915 1800 0
-1922 -1924 -1916 1804 0
-1922 -1929 -1916 1811 0
-1922 -1925 -1916 1789 0
-1920 -1928 -1916 1790 0
-1922 -1930 -1916 1792 0
-1919 -1925 -1916 1793 0
-1921 -1925 -1916 1807 0
-1923 -1928 -1916 1822 0
-1921 -1930 -1916 1794 0
-1922 -1927 -1916 1796 0
-1921 -1928 -1916 1815 0
-1919 -1928 -1916 1808 0
-1923 -1929 -1916 1798 0
-1923 -1925 -1916 1823 0
-1919 -1929 -1916 1824 0
-1922 -1926 -1916 1817 0
-1920 -1925 -1916 1818 0
-1923 -1924 -1916 1801 0
-1923 -1926 -1916 1819 0
-1920 -1930 -1916 1810 0
-1923 -1930 -1916 1803 0
-1922 -1928 -1916 1820 0
-1919 -1930 -1916 1827 0
-1920 -1926 -1916 1828 0
-1919 -1926 -1916 1829 0
-1919 -1917 1679 0
-1923 -1917 1656 0
-1920 -1917 1657 0
-1921 -1917 1672 0
-1922 -1917 1687 0
-1932 -1918 1805 0
-1937 -1918 1797 0
-1938 -1918 1812 0
-1933 -1918 1791 0
-1936 -1918 1816 0
-1934 -1918 1800 0
-1935 -1918 1809 0
-1931 -1918 1826 0
-1910 -1919 -1937 0
-1910 -1919 -1931 0
-1910 -1919 -1934 0
-1910 -1922 -1937 0
-1910 -1920 -1937 0
-1910 -1920 -1936 0
-1910 -1920 -1931 0
-1910 -1920 -1934 0
-1910 -1921 -1937 0
-1910 -1921 -1936 0
-1910 -1921 -1931 0
-1910 -1921 -1933 0
-1910 -1921 -1934 0
-1910 -1923 -1937 0
-1910 -1923 -1934 0
-1910 -1919 -1927 0
-1910 -1919 -1924 0
-1910 -1920 -1927 0
-1910 -1920 -1924 0
-1910 -1920 -1929 0
-1910 -1921 -1926 0
-1910 -1921 -1927 0
-1910 -1921 -1924 0
-1910 -1921 -1929 0
-1910 -1923 -1927 0
-1911 -1919 -1937 0
-1911 -1919 -1931 0
-1911 -1919 -1934 0
-1911 -1922 -1937 0
-1911 -1920 -1937 0
-1911 -1920 -1936 0
-1911 -1920 -1931 0
-1911 -1920 -1934 0
-1911 -1921 -1937 0
-1911 -1921 -1936 0
-1911 -1921 -1931 0
-1911 -1921 -1933 0
-1911 -1921 -1934 0
-1911 -1923 -1937 0
-1911 -1923 -1934 0
-1911 -1919 -1927 0
-1911 -1919 -1924 0
-1911 -1920 -1927 0
-1911 -1920 -1924 0
-1911 -1920 -1929 0
-1911 -1921 -1926 0
-1911 -1921 -1927 0
-1911 -1921 -1924 0
-1911 -1921 -1929 0
-1911 -1923 -1927 0
-1785 1910 0
-1786 1911 0
-1787 1912 0
-1784 1909 0
-1909 1784 0
-1910 1785 0
-1911 1786 0
-1912 1787 0
-1939 1941 0
-1940 -1941 0
-1656 1942 -1910 1923 0
-1656 1942 -1911 1934 0
-1656 1942 1910 1911 0
1656 -1942 -1910 1927 0
1656 -1942 -1911 1923 0
1656 -1942 1910 1911 0
-1657 1943 -1910 1920 0
-1657 1943 -1911 1936 0
-1657 1943 1910 1911 0
1657 -1943 -1910 1929 0
1657 -1943 -1911 1920 0
1657 -1943 1910 1911 0
-1789 1944 -1910 -1922 1925 0
-1789 1944 -1910 1922 0
-1789 1944 -1911 -1922 1925 0
-1789 1944 -1911 1922 0
-1789 1944 1910 1911 0
1789 -1944 -1910 -1922 1932 0
1789 -1944 -1910 1922 0
1789 -1944 -1911 -1922 1932 0
1789 -1944 -1911 1922 0
1789 -1944 1910 1911 0
-1790 1945 -1910 -1920 1928 0
-1790 1945 -1910 1920 0
-1790 1945 -1911 -1920 1928 0
-1790 1945 -1911 1920 0
-1790 1945 1910 1911 0
1790 -1945 -1910 -1920 1935 0
1790 -1945 -1910 1920 0
1790 -1945 -1911 -1920 1935 0
1790 -1945 -1911 1920 0
1790 -1945 1910 1911 0
-1791 1946 -1910 1933 0
-1791 1946 -1911 1921 0
-1791 1946 1910 1911 0
1791 -1946 -1910 1921 0
1791 -1946 -1911 1926 0
1791 -1946 1910 1911 0
-1792 1947 -1910 -1922 1930 0
-1792 1947 -1910 1922 0
-1792 1947 -1911 -1922 1930 0
-1792 1947 -1911 1922 0
-1792 1947 1910 1911 0
1792 -1947 -1910 -1922 1938 0
1792 -1947 -1910 1922 0
1792 -1947 -1911 -1922 1938 0
1792 -1947 -1911 1922 0
1792 -1947 1910 1911 0
-1793 1948 -1910 -1919 1925 0
-1793 1948 -1910 1919 0
-1793 1948 -1911 -1919 1925 0
-1793 1948 -1911 1919 0
-1793 1948 1910 1911 0
1793 -1948 -1910 -1919 1932 0
1793 -1948 -1910 1919 0
1793 -1948 -1911 -1919 1932 0
1793 -1948 -1911 1919 0
1793 -1948 1910 1911 0
-1662 1949 -1911 1938 0
-1662 1949 1911 0
1662 -1949 -1910 1930 0
1662 -1949 1910 0
-1794 1950 -1910 -1921 1930 0
-1794 1950 -1910 1921 0
-1794 1950 -1911 -1921 1930 0
-1794 1950 -1911 1921 0
-1794 1950 1910 1911 0
1794 -1950 -1910 -1921 1938 0
1794 -1950 -1910 1921 0
1794 -1950 -1911 -1921 1938 0
1794 -1950 -1911 1921 0
1794 -1950 1910 1911 0
-1796 1951 -1910 -1922 1927 0
-1796 1951 -1910 1922 0
-1796 1951 -1911 -1922 1927 0
-1796 1951 -1911 1922 0
-1796 1951 1910 1911 0
1796 -1951 -1910 -1922 1934 0
1796 -1951 -1910 1922 0
1796 -1951 -1911 -1922 1934 0
1796 -1951 -1911 1922 0
1796 -1951 1910 1911 0
-1797 1952 -1910 1937 0
-1797 1952 -1911 1922 0
-1797 1952 1910 1911 0
1797 -1952 -1910 1922 0
1797 -1952 1910 0
-1798 1953 -1910 -1923 1929 0
-1798 1953 -1910 1923 0
-1798 1953 -1911 -1923 1929 0
-1798 1953 -1911 1923 0
-1798 1953 1910 1911 0
1798 -1953 -1910 -1923 1936 0
1798 -1953 -1910 1923 0
1798 -1953 -1911 -1923 1936 0
1798 -1953 -1911 1923 0
1798 -1953 1910 1911 0
-1800 1954 -1910 1934 0
-1800 1954 -1911 1923 0
-1800 1954 1910 1911 0
1800 -1954 -1910 1923 0
1800 -1954 -1911 1927 0
1800 -1954 1910 1911 0
-1801 1955 -1910 -1923 1924 0
-1801 1955 -1910 1923 0
-1801 1955 -1911 -1923 1924 0
-1801 1955 -1911 1923 0
-1801 1955 1910 1911 0
1801 -1955 -1910 -1923 1931 0
1801 -1955 -1910 1923 0
1801 -1955 -1911 -1923 1931 0
1801 -1955 -1911 1923 0
1801 -1955 1910 1911 0
-1803 1956 -1910 -1923 1930 0
-1803 1956 -1910 1923 0
-1803 1956 -1911 -1923 1930 0
-1803 1956 -1911 1923 0
-1803 1956 1910 1911 0
1803 -1956 -1910 -1923 1938 0
1803 -1956 -1910 1923 0
1803 -1956 -1911 -1923 1938 0
1803 -1956 -1911 1923 0
1803 -1956 1910 1911 0
-1804 1957 -1910 -1922 1924 0
-1804 1957 -1910 1922 0
-1804 1957 -1911 -1922 1924 0
-1804 1957 -1911 1922 0
-1804 1957 1910 1911 0
1804 -1957 -1910 -1922 1931 0
1804 -1957 -1910 1922 0
1804 -1957 -1911 -1922 1931 0
1804 -1957 -1911 1922 0
1804 -1957 1910 1911 0
-1805 1958 -1910 1932 0
-1805 1958 1910 0
1805 -1958 -1911 1925 0
1805 -1958 1911 0
-1672 1959 -1910 1921 0
-1672 1959 -1911 1933 0
-1672 1959 1910 1911 0
1672 -1959 -1910 1926 0
1672 -1959 -1911 1921 0
1672 -1959 1910 1911 0
-1807 1960 -1910 -1921 1925 0
-1807 1960 -1910 1921 0
-1807 1960 -1911 -1921 1925 0
-1807 1960 -1911 1921 0
-1807 1960 1910 1911 0
1807 -1960 -1910 -1921 1932 0
1807 -1960 -1910 1921 0
1807 -1960 -1911 -1921 1932 0
1807 -1960 -1911 1921 0
1807 -1960 1910 1911 0
-1808 1961 -1910 -1919 1928 0
-1808 1961 -1910 1919 0
-1808 1961 -1911 -1919 1928 0
-1808 1961 -1911 1919 0
-1808 1961 1910 1911 0
1808 -1961 -1910 -1919 1935 0
1808 -1961 -1910 1919 0
1808 -1961 -1911 -1919 1935 0
1808 -1961 -1911 1919 0
1808 -1961 1910 1911 0
-1676 1962 -1911 1932 0
-1676 1962 1911 0
1676 -1962 -1910 1925 0
1676 -1962 1910 0
-1809 1963 -1910 1935 0
-1809 1963 1910 0
1809 -1963 -1911 1928 0
1809 -1963 1911 0
-1810 1964 -1910 -1920 1930 0
-1810 1964 -1910 1920 0
-1810 1964 -1911 -1920 1930 0
-1810 1964 -1911 1920 0
-1810 1964 1910 1911 0
1810 -1964 -1910 -1920 1938 0
1810 -1964 -1910 1920 0
1810 -1964 -1911 -1920 1938 0
1810 -1964 -1911 1920 0
1810 -1964 1910 1911 0
-1811 1965 -1910 -1922 1929 0
-1811 1965 -1910 1922 0
-1811 1965 -1911 -1922 1929 0
-1811 1965 -1911 1922 0
-1811 1965 1910 1911 0
1811 -1965 -1910 -1922 1936 0
1811 -1965 -1910 1922 0
1811 -1965 -1911 -1922 1936 0
1811 -1965 -1911 1922 0
1811 -1965 1910 1911 0
-1812 1966 -1910 1938 0
-1812 1966 1910 0
1812 -1966 -1911 1930 0
1812 -1966 1911 0
-1679 1967 -1910 1919 0
-1679 1967 -1911 1931 0
-1679 1967 1910 1911 0
1679 -1967 -1910 1924 0
1679 -1967 -1911 1919 0
1679 -1967 1910 1911 0
-1681 1968 -1911 1935 0
-1681 1968 1911 0
1681 -1968 -1910 1928 0
1681 -1968 1910 0
-1815 1969 -1910 -1921 1928 0
-1815 1969 -1910 1921 0
-1815 1969 -1911 -1921 1928 0
-1815 1969 -1911 1921 0
-1815 1969 1910 1911 0
1815 -1969 -1910 -1921 1935 0
1815 -1969 -1910 1921 0
1815 -1969 -1911 -1921 1935 0
1815 -1969 -1911 1921 0
1815 -1969 1910 1911 0
-1816 1970 -1910 1936 0
-1816 1970 -1911 1920 0
-1816 1970 1910 1911 0
1816 -1970 -1910 1920 0
1816 -1970 -1911 1929 0
1816 -1970 1910 1911 0
-1817 1971 -1910 -1922 1926 0
-1817 1971 -1910 1922 0
-1817 1971 -1911 -1922 1926 0
-1817 1971 -1911 1922 0
-1817 1971 1910 1911 0
1817 -1971 -1910 -1922 1933 0
1817 -1971 -1910 1922 0
1817 -1971 -1911 -1922 1933 0
1817 -1971 -1911 1922 0
1817 -1971 1910 1911 0
-1818 1972 -1910 -1920 1925 0
-1818 1972 -1910 1920 0
-1818 1972 -1911 -1920 1925 0
-1818 1972 -1911 1920 0
-1818 1972 1910 1911 0
1818 -1972 -1910 -1920 1932 0
1818 -1972 -1910 1920 0
1818 -1972 -1911 -1920 1932 0
1818 -1972 -1911 1920 0
1818 -1972 1910 1911 0
-1819 1973 -1910 -1923 1926 0
-1819 1973 -1910 1923 0
-1819 1973 -1911 -1923 1926 0
-1819 1973 -1911 1923 0
-1819 1973 1910 1911 0
1819 -1973 -1910 -1923 1933 0
1819 -1973 -1910 1923 0
1819 -1973 -1911 -1923 1933 0
1819 -1973 -1911 1923 0
1819 -1973 1910 1911 0
-1687 1974 -1910 1922 0
-1687 1974 -1911 1937 0
-1687 1974 1910 1911 0
1687 -1974 -1911 1922 0
1687 -1974 1911 0
-1820 1975 -1910 -1922 1928 0
-1820 1975 -1910 1922 0
-1820 1975 -1911 -1922 1928 0
-1820 1975 -1911 1922 0
-1820 1975 1910 1911 0
1820 -1975 -1910 -1922 1935 0
1820 -1975 -1910 1922 0
1820 -1975 -1911 -1922 1935 0
1820 -1975 -1911 1922 0
1820 -1975 1910 1911 0
-1822 1976 -1910 -1923 1928 0
-1822 1976 -1910 1923 0
-1822 1976 -1911 -1923 1928 0
-1822 1976 -1911 1923 0
-1822 1976 1910 1911 0
1822 -1976 -1910 -1923 1935 0
1822 -1976 -1910 1923 0
1822 -1976 -1911 -1923 1935 0
1822 -1976 -1911 1923 0
1822 -1976 1910 1911 0
-1823 1977 -1910 -1923 1925 0
-1823 1977 -1910 1923 0
-1823 1977 -1911 -1923 1925 0
-1823 1977 -1911 1923 0
-1823 1977 1910 1911 0
1823 -1977 -1910 -1923 1932 0
1823 -1977 -1910 1923 0
1823 -1977 -1911 -1923 1932 0
1823 -1977 -1911 1923 0
1823 -1977 1910 1911 0
-1824 1978 -1910 -1919 1929 0
-1824 1978 -1910 1919 0
-1824 1978 -1911 -1919 1929 0
-1824 1978 -1911 1919 0
-1824 1978 1910 1911 0
1824 -1978 -1910 -1919 1936 0
1824 -1978 -1910 1919 0
1824 -1978 -1911 -1919 1936 0
1824 -1978 -1911 1919 0
1824 -1978 1910 1911 0
-1826 1979 -1910 1931 0
-1826 1979 -1911 1919 0
-1826 1979 1910 1911 0
1826 -1979 -1910 1919 0
1826 -1979 -1911 1924 0
1826 -1979 1910 1911 0
-1827 1980 -1910 -1919 1930 0
-1827 1980 -1910 1919 0
-1827 1980 -1911 -1919 1930 0
-1827 1980 -1911 1919 0
-1827 1980 1910 1911 0
1827 -1980 -1910 -1919 1938 0
1827 -1980 -1910 1919 0
1827 -1980 -1911 -1919 1938 0
1827 -1980 -1911 1919 0
1827 -1980 1910 1911 0
-1828 1981 -1910 -1920 1926 0
-1828 1981 -1910 1920 0
-1828 1981 -1911 -1920 1926 0
-1828 1981 -1911 1920 0
-1828 1981 1910 1911 0
1828 -1981 -1910 -1920 1933 0
1828 -1981 -1910 1920 0
1828 -1981 -1911 -1920 1933 0
1828 -1981 -1911 1920 0
1828 -1981 1910 1911 0
-1829 1982 -1910 -1919 1926 0
-1829 1982 -1910 1919 0
-1829 1982 -1911 -1919 1926 0
-1829 1982 -1911 1919 0
-1829 1982 1910 1911 0
1829 -1982 -1910 -1919 1933 0
1829 -1982 -1910 1919 0
1829 -1982 -1911 -1919 1933 0
1829 -1982 -1911 1919 0
1829 -1982 1910 1911 0
-1939 -1940 0
-1935 1983 -1968 0
-1934 1983 -1942 0
-1936 1983 -1943 0
-1932 1983 -1962 0
-1931 1983 -1967 0
-1933 1983 -1959 0
-1937 1983 -1974 0
-1938 1983 -1949 0
-1928 -1984 1968 0
-1927 -1984 1942 0
-1929 -1984 1943 0
-1925 -1984 1962 0
-1924 -1984 1967 0
-1926 -1984 1959 0
-1930 -1984 1949 0
-1925 -1985 1958 0
-1930 -1985 1966 0
-1926 -1985 1946 0
-1929 -1985 1970 0
-1927 -1985 1954 0
-1928 -1985 1963 0
-1924 -1985 1979 0
-1919 1986 -1979 0
-1922 1986 -1952 0
-1921 1986 -1946 0
-1920 1986 -1970 0
-1923 1986 -1954 0
-1919 -1986 1979 0
-1922 -1986 1952 0
-1921 -1986 1946 0
-1920 -1986 1970 0
-1923 -1986 1954 0
-1922 -1924 1987 -1957 0
-1922 -1929 1987 -1965 0
-1922 -1925 1987 -1944 0
-1920 -1928 1987 -1945 0
-1922 -1930 1987 -1947 0
-1919 -1925 1987 -1948 0
-1921 -1925 1987 -1960 0
-1923 -1928 1987 -1976 0
-1921 -1930 1987 -1950 0
-1922 -1927 1987 -1951 0
-1921 -1928 1987 -1969 0
-1919 -1928 1987 -1961 0
-1923 -1929 1987 -1953 0
-1923 -1925 1987 -1977 0
-1919 -1929 1987 -1978 0
-1922 -1926 1987 -1971 0
-1920 -1925 1987 -1972 0
-1923 -1924 1987 -1955 0
-1923 -1926 1987 -1973 0
-1920 -1930 1987 -1964 0
-1923 -1930 1987 -1956 0
-1922 -1928 1987 -1975 0
-1919 -1930 1987 -1980 0
-1920 -1926 1987 -1981 0
-1919 -1926 1987 -1982 0
-1919 1988 -1967 0
-1923 1988 -1942 0
-1920 1988 -1943 0
-1921 1988 -1959 0
-1922 1988 -1974 0
-1919 -1988 1967 0
-1923 -1988 1942 0
-1920 -1988 1943 0
-1921 -1988 1959 0
-1922 -1988 1974 0
-1932 1989 -1958 0
-1937 1989 -1952 0
-1938 1989 -1966 0
-1933 1989 -1946 0
-1936 1989 -1970 0
-1934 1989 -1954 0
-1935 1989 -1963 0
-1931 1989 -1979 0
-1922 -1931 -1990 1957 0
-1922 -1936 -1990 1965 0
-1922 -1932 -1990 1944 0
-1920 -1935 -1990 1945 0
-1922 -1938 -1990 1947 0
-1919 -1932 -1990 1948 0
-1921 -1932 -1990 1960 0
-1923 -1935 -1990 1976 0
-1921 -1938 -1990 1950 0
-1922 -1934 -1990 1951 0
-1921 -1935 -1990 1969 0
-1919 -1935 -1990 1961 0
-1923 -1936 -1990 1953 0
-1923 -1932 -1990 1977 0
-1919 -1936 -1990 1978 0
-1922 -1933 -1990 1971 0
-1920 -1932 -1990 1972 0
-1923 -1931 -1990 1955 0
-1923 -1933 -1990 1973 0
-1920 -1938 -1990 1964 0
-1923 -1938 -1990 1956 0
-1922 -1935 -1990 1975 0
-1919 -1938 -1990 1980 0
-1920 -1933 -1990 1981 0
-1919 -1933 -1990 1982 0
-1910 1984 0
-1991 1919 -1924 0
-1991 -1919 1924 0
-1991 1920 -1929 0
-1991 -1920 1929 0
-1991 1921 -1926 0
-1991 -1921 1926 0
-1991 1923 -1927 0
-1991 -1923 1927 0
-1919 -1924 1991 0
-1920 -1929 1991 0
-1921 -1926 1991 0
-1923 -1927 1991 0
-1922 -1991 0
-1928 -1991 0
-1925 -1991 0
-1930 -1991 0
-1910 -1988 1991 0
-1910 1986 0
-1910 1990 0
-1992 1931 -1924 0
-1992 -1931 1924 0
-1992 1932 -1925 0
-1992 -1932 1925 0
-1992 1933 -1926 0
-1992 -1933 1926 0
-1992 1934 -1927 0
-1992 -1934 1927 0
-1992 1935 -1928 0
-1992 -1935 1928 0
-1992 1936 -1929 0
-1992 -1936 1929 0
-1992 1938 -1930 0
-1992 -1938 1930 0
-1931 -1924 1992 0
-1932 -1925 1992 0
-1933 -1926 1992 0
-1934 -1927 1992 0
-1935 -1928 1992 0
-1936 -1929 1992 0
-1938 -1930 1992 0
-1937 -1992 0
-1993 1931 -1919 0
-1993 -1931 1919 0
-1993 1936 -1920 0
-1993 -1936 1920 0
-1993 1933 -1921 0
-1993 -1933 1921 0
-1993 1937 -1922 0
-1993 -1937 1922 0
-1993 1934 -1923 0
-1993 -1934 1923 0
-1931 -1919 1993 0
-1936 -1920 1993 0
-1933 -1921 1993 0
-1937 -1922 1993 0
-1934 -1923 1993 0
-1935 -1993 0
-1932 -1993 0
-1938 -1993 0
-1910 -1989 1993 0
-1994 1924 -1931 0
-1994 -1924 1931 0
-1994 1925 -1932 0
-1994 -1925 1932 0
-1994 1926 -1933 0
-1994 -1926 1933 0
-1994 1927 -1934 0
-1994 -1927 1934 0
-1994 1928 -1935 0
-1994 -1928 1935 0
-1994 1929 -1936 0
-1994 -1929 1936 0
-1994 1930 -1938 0
-1994 -1930 1938 0
-1924 -1931 1994 0
-1925 -1932 1994 0
-1926 -1933 1994 0
-1927 -1934 1994 0
-1928 -1935 1994 0
-1929 -1936 1994 0
-1930 -1938 1994 0
-1937 -1994 0
-1910 -1987 1994 0
-1911 1988 0
-1911 1985 0
-1911 1990 0
-1911 -1986 1991 0
-1911 -1983 1993 0
-1911 -1987 1994 0
-1785 1940 0
-1786 1940 0
-1787 1939 0
-1784 1939 0
-1940 1785 1786 0
-1939 1787 1784 0
-1942 151 -1941 0
1942 -151 -1941 0
-1943 152 -1941 0
1943 -152 -1941 0
-1944 154 -1941 0
1944 -154 -1941 0
-1945 155 -1941 0
1945 -155 -1941 0
-1946 385 -1941 0
1946 -385 -1941 0
-1947 156 -1941 0
1947 -156 -1941 0
-1948 158 -1941 0
1948 -158 -1941 0
-1949 159 -1941 0
1949 -159 -1941 0
-1950 160 -1941 0
1950 -160 -1941 0
-1795 602 -1941 0
1795 -602 -1941 0
-1951 10 -1941 0
1951 -10 -1941 0
-1952 162 -1941 0
1952 -162 -1941 0
-1953 163 -1941 0
1953 -163 -1941 0
-1799 270 -1941 0
1799 -270 -1941 0
-1954 386 -1941 0
1954 -386 -1941 0
-1955 11 -1941 0
1955 -11 -1941 0
-1802 271 -1941 0
1802 -271 -1941 0
-1956 167 -1941 0
1956 -167 -1941 0
-1957 170 -1941 0
1957 -170 -1941 0
-1958 171 -1941 0
1958 -171 -1941 0
-1959 172 -1941 0
1959 -172 -1941 0
-1806 273 -1941 0
1806 -273 -1941 0
-1960 12 -1941 0
1960 -12 -1941 0
-1961 174 -1941 0
1961 -174 -1941 0
-1962 274 -1941 0
1962 -274 -1941 0
-1963 387 -1941 0
1963 -387 -1941 0
-1964 176 -1941 0
1964 -176 -1941 0
-1965 153 -1941 0
1965 -153 -1941 0
-1966 388 -1941 0
1966 -388 -1941 0
-1967 157 -1941 0
1967 -157 -1941 0
-1813 267 -1941 0
1813 -267 -1941 0
-1968 268 -1941 0
1968 -268 -1941 0
-1814 269 -1941 0
1814 -269 -1941 0
-1969 161 -1941 0
1969 -161 -1941 0
-1970 389 -1941 0
1970 -389 -1941 0
-1971 164 -1941 0
1971 -164 -1941 0
-1972 165 -1941 0
1972 -165 -1941 0
-1973 166 -1941 0
1973 -166 -1941 0
-1974 168 -1941 0
1974 -168 -1941 0
-1975 169 -1941 0
1975 -169 -1941 0
-1821 272 -1941 0
1821 -272 -1941 0
-1976 173 -1941 0
1976 -173 -1941 0
-1977 175 -1941 0
1977 -175 -1941 0
-1978 13 -1941 0
1978 -13 -1941 0
-1825 603 -1941 0
1825 -603 -1941 0
-1979 390 -1941 0
1979 -390 -1941 0
-1980 177 -1941 0
1980 -177 -1941 0
-1981 14 -1941 0
1981 -14 -1941 0
-1982 178 -1941 0
1982 -178 -1941 0
-1857 1995 0
-1995 1857 0
a 1941 0
